NAME : OMNETRUN
COMMENT : 524.61
TYPE : CVRP
DIMENSION : 21
EDGE_WEIGHT_TYPE : EUC_2D
CAPACITY : 21
NODE_COORD_SECTION
1 0.107093 -0.77924
2 188.414 -153.77
3 149.597 -913.226
4 215.406 -1985.36
5 63.4847 -2500.45
6 63.7074 -3690.59
7 221.393 -4236.71
8 7.01565 -4848.67
9 274.043 -1511.49
10 497.481 -3228.38
11 393.455 -3843.95
12 361.505 -5052.44
13 362.939 -5738.94
14 673.668 -15.774
15 695.294 -545.874
16 594.962 -1178.54
17 687.066 -1600.62
18 555.266 -2145.95
19 691.61 -2737.45
20 727.235 -4099.6
21 644.861 -4672.02
DEMAND_SECTION
1 0
2 1
3 1
4 1
5 1
6 1
7 1
8 1
9 1
10 1
11 1
12 1
13 1
14 1
15 1
16 1
17 1
18 1
19 1
20 1
21 1
DEPOT_SECTION
1
-1
EOF
